p cnf 97 331
-2 -3 -4 0
2 3 -4 0
-2 3 4 0
2 -3 4 0
5 1 0
5 4 0
-1 -4 -5 0
5 6 -7 0
-5 -6 -7 0
5 -6 7 0
-5 6 7 0
9 -10 -11 0
-9 10 -11 0
9 10 11 0
-9 -10 11 0
12 8 0
12 -11 0
-8 11 -12 0
13 7 0
13 12 0
-7 -12 -13 0
-13 -14 -15 0
13 14 -15 0
-13 14 15 0
13 -14 15 0
-17 -16 0
-17 -6 0
16 6 17 0
-19 18 0
-19 11 0
-18 -11 19 0
20 -18 -21 0
-20 18 -21 0
20 18 21 0
-20 -18 21 0
19 -21 -22 0
-19 21 -22 0
19 21 22 0
-19 -21 22 0
-23 20 0
-23 -6 0
-20 6 23 0
-24 23 0
-24 -1 0
-23 1 24 0
-26 18 0
-26 25 0
-18 -25 26 0
27 26 0
27 24 0
-26 -24 -27 0
28 -24 0
28 -27 0
24 27 -28 0
-29 24 0
-29 -28 0
-24 28 29 0
30 -17 0
30 -29 0
17 29 -30 0
-31 -22 0
-31 -30 0
22 30 31 0
-32 17 0
-32 -31 0
-17 31 32 0
13 30 -33 0
-13 -30 -33 0
13 -30 33 0
-13 30 33 0
2 33 -34 0
-2 -33 -34 0
2 -33 34 0
-2 33 34 0
-8 24 -35 0
8 -24 -35 0
-8 -24 35 0
8 24 35 0
-36 -25 0
-36 18 0
25 -18 36 0
2 36 -37 0
-2 -36 -37 0
2 -36 37 0
-2 36 37 0
38 -35 0
38 -37 0
35 37 -38 0
-38 3 -39 0
38 -3 -39 0
-38 -3 39 0
38 3 39 0
34 -39 -40 0
-34 39 -40 0
34 39 40 0
-34 -39 40 0
41 11 0
41 -8 0
-11 8 -41 0
-42 -10 0
-42 -41 0
10 41 42 0
43 24 0
43 -42 0
-24 42 -43 0
-44 29 0
-44 14 0
-29 -14 44 0
-45 44 0
-45 -29 0
-44 29 45 0
46 18 0
46 45 0
-18 -45 -46 0
47 -9 0
47 46 0
9 -46 -47 0
9 -6 -48 0
-9 6 -48 0
9 6 48 0
-9 -6 48 0
49 -47 0
49 48 0
47 -48 -49 0
50 -43 0
50 -49 0
43 49 -50 0
-41 -43 -51 0
41 43 -51 0
-41 43 51 0
41 -43 51 0
52 14 0
52 -6 0
-14 6 -52 0
-53 -51 0
-53 52 0
51 -52 53 0
35 -24 -54 0
-35 24 -54 0
35 24 54 0
-35 -24 54 0
-55 54 0
-55 -48 0
-54 48 55 0
-56 55 0
-56 9 0
-55 -9 56 0
-57 -53 0
-57 -56 0
53 56 57 0
50 57 -58 0
-50 -57 -58 0
50 -57 58 0
-50 57 58 0
-60 -59 0
-60 6 0
59 -6 60 0
61 -58 0
61 -60 0
58 60 -61 0
-62 40 0
-62 61 0
-40 -61 62 0
-63 48 0
-63 -36 0
-48 36 63 0
64 20 0
64 59 0
-20 -59 -64 0
-65 63 0
-65 -64 0
-63 64 65 0
65 -63 -66 0
-65 63 -66 0
65 63 66 0
-65 -63 66 0
-19 23 -67 0
19 -23 -67 0
-19 -23 67 0
19 23 67 0
-66 67 -68 0
66 -67 -68 0
-66 -67 68 0
66 67 68 0
69 11 0
69 3 0
-11 -3 -69 0
-70 21 0
-70 -5 0
-21 5 70 0
71 69 0
71 -70 0
-69 70 -71 0
72 68 0
72 71 0
-68 -71 -72 0
-73 37 0
-73 -9 0
-37 9 73 0
74 -36 0
74 6 0
36 -6 -74 0
-75 -74 0
-75 42 0
74 -42 75 0
76 -73 0
76 -75 0
73 75 -76 0
-77 44 0
-77 -16 0
-44 16 77 0
64 17 -78 0
-64 -17 -78 0
64 -17 78 0
-64 17 78 0
79 77 0
79 -78 0
-77 78 -79 0
-25 35 -80 0
25 -35 -80 0
-25 -35 80 0
25 35 80 0
79 -80 -81 0
-79 80 -81 0
79 80 81 0
-79 -80 81 0
83 -11 0
83 82 0
11 -82 -83 0
84 -81 0
84 -83 0
81 83 -84 0
-85 76 0
-85 84 0
-76 -84 85 0
86 -72 0
86 85 0
72 -85 -86 0
-87 62 0
-87 -86 0
-62 86 87 0
32 -87 -88 0
-32 87 -88 0
32 87 88 0
-32 -87 88 0
-89 15 0
-89 88 0
-15 -88 89 0
90 -16 0
90 -17 0
16 17 -90 0
-91 13 0
-91 -6 0
-13 6 91 0
-92 -90 0
-92 91 0
90 -91 92 0
-14 27 -93 0
14 -27 -93 0
-14 -27 93 0
14 27 93 0
-92 -93 -94 0
92 93 -94 0
-92 93 94 0
92 -93 94 0
95 26 0
95 -74 0
-26 74 -95 0
94 95 -96 0
-94 -95 -96 0
94 -95 96 0
-94 95 96 0
97 89 0
97 96 0
-89 -96 -97 0
62 -47 -90 77 -53 0
16 -64 -20 93 -63 -37 0
-53 40 72 -68 -89 57 0
-93 61 34 -49 0
-33 57 -91 47 29 36 0
-69 6 24 0
-14 -37 24 -90 0
-12 -53 0
-42 38 -20 -52 43 0
24 -34 -5 -80 -51 0
16 61 8 0
96 70 60 -19 2 -68 0
-50 18 -76 -22 -37 0
-12 2 57 0
26 75 -20 0
11 -30 75 3 0
62 57 39 77 16 89 0
45 -21 0
-89 -52 0
-17 48 40 -34 -27 0
15 13 -24 0
-7 -18 0
37 26 -11 -58 0
12 65 55 -30 0
-78 96 43 -39 90 0
-34 77 -80 -56 0
47 -55 51 0
39 76 -55 -63 0
-29 -27 95 -12 -4 0
-84 -58 -15 50 -75 52 0
-29 67 -28 0
-8 14 -1 -30 17 28 0
-2 -61 8 34 66 0
71 -35 0
81 6 -37 -91 0
78 66 32 0
-94 46 58 -95 74 0
74 35 86 73 0
8 30 54 0
7 76 -82 0
52 89 -76 67 5 0
-84 -45 7 0
67 -18 37 69 -78 0
95 -80 -43 -45 85 -53 0
-11 -30 0
39 -86 -96 -77 55 0
84 73 60 -53 74 75 0
-5 -42 -80 63 0
36 -87 -40 -30 -3 -67 0
-2 88 -54 76 -50 -25 0
64 90 83 0
-33 -22 66 6 0
9 62 0
63 -69 0
-29 32 7 -62 -71 -24 0
97 0
